RT is False
Default write of storage_offers_DA.csv just to have a file (but constraint should be inactive)
Reading model...
...model read.
creating competitive generators file...
...competitive generators recorded.
Loading data...
.. day-ahead data with real-time VRE data read.
Compiling instance...
...instance created.
Creating Offer Mitigation (model will solve as dispatch if TRUE)...
Solving...

Welcome to IBM(R) ILOG(R) CPLEX(R) Interactive Optimizer 12.9.0.0
  with Simplex, Mixed Integer & Barrier Optimizers
5725-A06 5725-A29 5724-Y48 5724-Y49 5724-Y54 5724-Y55 5655-Y21
Copyright IBM Corp. 1988, 2019.  All Rights Reserved.

Type 'help' for a list of available commands.
Type 'help' followed by a command name for more
information on commands.

CPLEX> Logfile 'cplex.log' closed.
Logfile 'C:\Users\Luke\Desktop\test919\logs\tmpfawka_qx.cplex.log' open.
CPLEX> New value for parallel optimization mode: -1
CPLEX> New value for mixed integer optimality gap tolerance: 0.01
CPLEX> New value for integrality tolerance: 1e-09
CPLEX> New value for feasibility tolerance: 0.01
CPLEX> New value for deterministic time limit in ticks: 75000
CPLEX> Problem 'C:\Users\Luke\Desktop\test919\logs\tmpwu7wjggl.pyomo.lp' read.
Read time = 0.05 sec. (3.04 ticks)
CPLEX> Problem name         : C:\Users\Luke\Desktop\test919\logs\tmpwu7wjggl.pyomo.lp
Objective sense      : Minimize
Variables            :   26081  [Nneg: 1,  Box: 21616,  Free: 4464]
Objective nonzeros   :    2496
Linear constraints   :   27515  [Less: 14006,  Greater: 4416,  Equal: 9093]
  Nonzeros           :   89219
  RHS nonzeros       :   12264

Variables            : Min LB: -5000.000        Max UB: 1000000.       
Objective nonzeros   : Min   : 15.73158         Max   : 124.0997       
Linear constraints   :
  Nonzeros           : Min   : 0.8500000        Max   : 3000.000       
  RHS nonzeros       : Min   : 0.008333333      Max   : 5000.000       
CPLEX> CPXPARAM_Parallel                                -1
CPXPARAM_Simplex_Tolerances_Feasibility          0.01
CPXPARAM_DetTimeLimit                            75000
CPXPARAM_MIP_Tolerances_MIPGap                   0.01
CPXPARAM_MIP_Tolerances_Integrality              1.0000000000000001e-09
Parallel mode: opportunistic, using up to 12 threads for concurrent optimization.
Tried aggregator 1 time.
LP Presolve eliminated 21377 rows and 15487 columns.
Aggregator did 752 substitutions.
Reduced LP has 5386 rows, 9842 columns, and 31776 nonzeros.
Presolve time = 0.05 sec. (30.21 ticks)
Symmetry aggregator did 5563 additional substitutions.

Iteration log . . .
Iteration:     1   Dual objective     =             0.000000
Perturbation started.
Iteration:   101   Dual objective     =             0.000000
Iteration:   343   Dual objective     =             1.315923
Iteration:   606   Dual objective     =             1.887802
Iteration:   872   Dual objective     =             2.017460
Iteration:  1084   Dual objective     =             2.139117
Iteration:  1360   Dual objective     =             2.185890
Iteration:  1608   Dual objective     =             2.219224
Iteration:  1838   Dual objective     =             2.241589
Iteration:  2056   Dual objective     =             2.266198
Iteration:  2273   Dual objective     =             2.279187
Iteration:  2507   Dual objective     =         11892.671941
Iteration:  2840   Dual objective     =         17819.187308
Removing perturbation.
Dual superbasis not built.
Using devex.

Primal simplex solved model.


Primal simplex - Optimal:  Objective =  1.8092764130e+04
Solution time =    0.13 sec.  Iterations = 1542 (1090)
Deterministic time = 77.35 ticks  (618.80 ticks/sec)

CPLEX> Solution written to file 'C:\Users\Luke\Desktop\test919\logs\tmp5s4okr55.cplex.sol'.
CPLEX> Exporting results... 
...storage offer mitigation file created
Converting model to MPEC...
...converted
NOTE: initial MIP solve with only storage competitive to get feasible solution
Solving...

Welcome to IBM(R) ILOG(R) CPLEX(R) Interactive Optimizer 12.9.0.0
  with Simplex, Mixed Integer & Barrier Optimizers
5725-A06 5725-A29 5724-Y48 5724-Y49 5724-Y54 5724-Y55 5655-Y21
Copyright IBM Corp. 1988, 2019.  All Rights Reserved.

Type 'help' for a list of available commands.
Type 'help' followed by a command name for more
information on commands.

CPLEX> Logfile 'cplex.log' closed.
Logfile 'C:\Users\Luke\Desktop\test919\logs\tmprsybeyc8.cplex.log' open.
CPLEX> New value for parallel optimization mode: -1
CPLEX> New value for mixed integer optimality gap tolerance: 0.01
CPLEX> New value for integrality tolerance: 1e-09
CPLEX> New value for feasibility tolerance: 0.01
CPLEX> New value for deterministic time limit in ticks: 75000
CPLEX> Problem 'C:\Users\Luke\Desktop\test919\logs\tmpr2f0s0ja.pyomo.lp' read.
Read time = 0.20 sec. (14.78 ticks)
CPLEX> Problem name         : C:\Users\Luke\Desktop\test919\logs\tmpr2f0s0ja.pyomo.lp
Objective sense      : Maximize
Variables            :   53805  [Nneg: 1,  Box: 22000,  Free: 4464,
                                 Binary: 27340]
Objective nonzeros   :    9022
Linear constraints   :  123205  [Less: 41346,  Greater: 59096,  Equal: 22763]
  Nonzeros           :  291746
  RHS nonzeros       :   67402

Variables            : Min LB: -5000.000        Max UB: 1000000.       
Objective nonzeros   : Min   : 0.008333333      Max   : 2500.000       
Linear constraints   :
  Nonzeros           : Min   : 0.008333333      Max   : 1000000.       
  RHS nonzeros       : Min   : 0.008333333      Max   : 1000000.       
CPLEX> CPXPARAM_Parallel                                -1
CPXPARAM_Simplex_Tolerances_Feasibility          0.01
CPXPARAM_DetTimeLimit                            75000
CPXPARAM_MIP_Tolerances_MIPGap                   0.01
CPXPARAM_MIP_Tolerances_Integrality              1.0000000000000001e-09
Tried aggregator 3 times.
MIP Presolve eliminated 88718 rows and 19039 columns.
MIP Presolve added 3365 rows and 0 columns.
MIP Presolve modified 24823 coefficients.
Aggregator did 12980 substitutions.
Reduced MIP has 24872 rows, 21227 columns, and 70948 nonzeros.
Reduced MIP has 8392 binaries, 0 generals, 0 SOSs, and 0 indicators.
Presolve time = 0.23 sec. (173.63 ticks)
Probing fixed 391 vars, tightened 2873 bounds.
Probing time = 1.70 sec. (908.00 ticks)
Tried aggregator 2 times.
MIP Presolve eliminated 884 rows and 787 columns.
MIP Presolve modified 2206 coefficients.
Aggregator did 43 substitutions.
Reduced MIP has 23945 rows, 20397 columns, and 68259 nonzeros.
Reduced MIP has 7999 binaries, 0 generals, 0 SOSs, and 0 indicators.
Presolve time = 0.09 sec. (69.23 ticks)
Probing time = 0.03 sec. (15.57 ticks)
Clique table members: 6515.
MIP emphasis: balance optimality and feasibility.
MIP search method: dynamic search.
Parallel mode: opportunistic, using up to 12 threads.
Root relaxation solution time = 0.41 sec. (518.56 ticks)

        Nodes                                         Cuts/
   Node  Left     Objective  IInf  Best Integer    Best Bound    ItCnt     Gap

      0     0        0.0000   658                      0.0000     6431         
*     0+    0                            0.0000        0.0000             0.00%
      0     0        cutoff              0.0000        0.0000     6431    0.00%
Elapsed time = 3.42 sec. (2142.67 ticks, tree = 0.01 MB, solutions = 1)

Root node processing (before b&c):
  Real time             =    3.44 sec. (2144.61 ticks)
Parallel b&c, 12 threads:
  Real time             =    0.00 sec. (0.00 ticks)
  Sync time (average)   =    0.00 sec.
  Wait time (average)   =    0.00 sec.
                          ------------
Total (root+branch&cut) =    3.44 sec. (2144.61 ticks)

Solution pool: 1 solution saved.

MIP - Integer optimal solution:  Objective =  1.1632437236e-09
Solution time =    3.44 sec.  Iterations = 6431  Nodes = 0
Deterministic time = 2144.76 ticks  (623.84 ticks/sec)

CPLEX> Incumbent solution written to file 'C:\Users\Luke\Desktop\test919\logs\tmpcom_uuhv.cplex.sol'.
CPLEX> NOTE: no warmstart specified for MIP iteration, default behavior is true
NOTE: resolving with all competitive generators using storage-only solution to warmstart
Solving...

Welcome to IBM(R) ILOG(R) CPLEX(R) Interactive Optimizer 12.9.0.0
  with Simplex, Mixed Integer & Barrier Optimizers
5725-A06 5725-A29 5724-Y48 5724-Y49 5724-Y54 5724-Y55 5655-Y21
Copyright IBM Corp. 1988, 2019.  All Rights Reserved.

Type 'help' for a list of available commands.
Type 'help' followed by a command name for more
information on commands.

CPLEX> Logfile 'cplex.log' closed.
Logfile 'C:\Users\Luke\Desktop\test919\logs\tmp1cas6czb.cplex.log' open.
CPLEX> New value for parallel optimization mode: -1
CPLEX> New value for mixed integer optimality gap tolerance: 0.01
CPLEX> New value for integrality tolerance: 1e-09
CPLEX> New value for feasibility tolerance: 0.01
CPLEX> New value for deterministic time limit in ticks: 75000
CPLEX> Problem 'C:\Users\Luke\Desktop\test919\logs\tmpdkwpsu0i.pyomo.lp' read.
Read time = 0.20 sec. (14.81 ticks)
CPLEX> MIP start file 'C:\Users\Luke\Desktop\test919\logs\tmpu8b1pdlc.cplex.mst' read.
CPLEX> Problem name         : C:\Users\Luke\Desktop\test919\logs\tmpdkwpsu0i.pyomo.lp
Objective sense      : Maximize
Variables            :   54525  [Nneg: 1,  Box: 22720,  Free: 4464,
                                 Binary: 27340]
Objective nonzeros   :    9718
Linear constraints   :  123205  [Less: 41346,  Greater: 59096,  Equal: 22763]
  Nonzeros           :  291746
  RHS nonzeros       :   67402

Variables            : Min LB: -5000.000        Max UB: 1000000.       
Objective nonzeros   : Min   : 0.008333333      Max   : 2500.000       
Linear constraints   :
  Nonzeros           : Min   : 0.008333333      Max   : 1000000.       
  RHS nonzeros       : Min   : 0.008333333      Max   : 1000000.       
CPLEX> CPXPARAM_Parallel                                -1
CPXPARAM_Simplex_Tolerances_Feasibility          0.01
CPXPARAM_DetTimeLimit                            75000
CPXPARAM_MIP_Tolerances_MIPGap                   0.01
CPXPARAM_MIP_Tolerances_Integrality              1.0000000000000001e-09
Warning:  No solution found from 1 MIP starts.
Retaining values of one MIP start for possible repair.
Tried aggregator 3 times.
MIP Presolve eliminated 88718 rows and 19759 columns.
MIP Presolve added 3365 rows and 0 columns.
MIP Presolve modified 24823 coefficients.
Aggregator did 12980 substitutions.
Reduced MIP has 24872 rows, 21227 columns, and 70948 nonzeros.
Reduced MIP has 8392 binaries, 0 generals, 0 SOSs, and 0 indicators.
Presolve time = 0.23 sec. (173.99 ticks)
Probing fixed 391 vars, tightened 2873 bounds.
Probing time = 1.56 sec. (908.00 ticks)
Tried aggregator 2 times.
MIP Presolve eliminated 884 rows and 787 columns.
MIP Presolve modified 2206 coefficients.
Aggregator did 43 substitutions.
Reduced MIP has 23945 rows, 20397 columns, and 68259 nonzeros.
Reduced MIP has 7999 binaries, 0 generals, 0 SOSs, and 0 indicators.
Presolve time = 0.09 sec. (69.23 ticks)
Probing time = 0.05 sec. (15.57 ticks)
Clique table members: 6515.
MIP emphasis: balance optimality and feasibility.
MIP search method: dynamic search.
Parallel mode: opportunistic, using up to 12 threads.
Root relaxation solution time = 0.38 sec. (293.08 ticks)

        Nodes                                         Cuts/
   Node  Left     Objective  IInf  Best Integer    Best Bound    ItCnt     Gap

      0     0   117909.4624  1774                 117909.4624     6760         
      0     0   113593.9848   659                   Cuts: 561     7057         
      0     0   113064.1626   607                   Cuts: 215     7171         
      0     0   112375.5382   562                   Cuts: 133     7269         
      0     0   112375.5382   547                   Cuts: 100     7308         
      0     0   112375.5382   523                    Cuts: 85     7347         
      0     0   112375.5382   516                    Cuts: 74     7370         
      0     0   112375.5382   502                    Cuts: 65     7387         
      0     0   105167.0495   470                    Cuts: 65     7560         
      0     0   105162.5772   467                    Cuts: 64     7584         
      0     0   105162.5772   470                    Cuts: 48     7605         
Repair heuristic found nothing.
      0     2   105162.5772   470                 Impl Bds: 4     7605         
Elapsed time = 17.73 sec. (8435.76 ticks, tree = 0.02 MB, solutions = 0)
    154    51    54938.8583   376                  67196.4241     8191         
    321   210    38217.3006   404                  67196.4241    10383         
    513   272    infeasible                        67196.4241    11705         
    705   361    infeasible                        67196.4241    15268         
    936   429    17516.6352   350                  67196.4241    19409         
   1208   424     7323.5976   342                  67196.4241    19071         
   1553   587        0.0000   333                  67196.4241    22444         
   1948   933     3900.1693   326                  67196.4241    23560         
   2308  1185    -9483.0189   261                  67196.4241    23579         
   3869  2290   -12235.7093   270                  67196.4241    24902         
Elapsed time = 30.52 sec. (11538.70 ticks, tree = 17.80 MB, solutions = 1)
*  3961+ 2752                            0.0000    67196.4241              --- 
*  4784  1691      integral     0     7184.1461    67196.4241    26086  835.34%
   5848  1519    20889.4611   353     7184.1461    67196.4241    28770  835.34%
*  6480  1812      integral     0     7184.1461     7184.1461    38480    0.00%

GUB cover cuts applied:  2
Clique cuts applied:  9
Cover cuts applied:  9
Implied bound cuts applied:  330
Flow cuts applied:  926
Mixed integer rounding cuts applied:  3186
Gomory fractional cuts applied:  43

Root node processing (before b&c):
  Real time             =   16.69 sec. (8386.97 ticks)
Parallel b&c, 12 threads:
  Real time             =   25.23 sec. (8640.25 ticks)
  Sync time (average)   =    0.65 sec.
  Wait time (average)   =    0.00 sec.
                          ------------
Total (root+branch&cut) =   41.92 sec. (17027.22 ticks)

Solution pool: 6 solutions saved.

MIP - Integer optimal solution:  Objective =  7.1841460765e+03
Solution time =   41.92 sec.  Iterations = 38480  Nodes = 6480
Deterministic time = 17027.38 ticks  (406.17 ticks/sec)

CPLEX> Incumbent solution written to file 'C:\Users\Luke\Desktop\test919\logs\tmpi8h6587m.cplex.sol'.
CPLEX> Exporting results... 
